p cnf 7230 18
-4170 -4794 -4796 5256 0
2452 4810 4818 4824 -5259 0
-2452 -5260 0
4170 -5256 0
-4810 -5260 0
-4172 -4822 -5257 0
4172 -5258 0
4796 -5256 0
-4818 -5260 0
5259 5260 0
5257 5258 0
4822 -5258 0
-4824 -5260 0
-4802 -4820 5262 0
4820 -5262 0
4802 -5262 0
-5255 5256 0
5255 -5256 0
